# Objective value = 9
c_n1n2n14 3
c_n4n18n19 3
c_n6n13n15 3
y_n0n1 0
y_n1n2 0
y_n0n2 0
y_n1n3 1
y_n0n3 0
y_n1n4 0
y_n0n4 0
y_n1n5 1
y_n0n5 0
y_n1n6 0
y_n0n6 0
y_n1n7 0
y_n0n7 0
y_n1n8 1
y_n0n8 0
y_n1n9 1
y_n0n9 0
y_n1n10 0
y_n0n10 0
y_n1n11 1
y_n0n11 0
y_n1n12 1
y_n0n12 0
y_n1n13 0
y_n0n13 0
y_n1n14 1
y_n0n14 0
y_n1n15 0
y_n0n15 0
y_n1n16 0
y_n0n16 0
y_n1n17 0
y_n0n17 0
y_n1n18 0
y_n0n18 0
y_n1n19 0
y_n0n19 0
y_n2n3 1
y_n2n4 0
y_n2n5 1
y_n2n6 0
y_n2n7 0
y_n2n8 1
y_n2n9 1
y_n2n10 0
y_n2n11 1
y_n2n12 1
y_n2n13 0
y_n2n14 1
y_n2n15 0
y_n2n16 0
y_n2n17 0
y_n2n18 0
y_n2n19 0
y_n3n4 0
y_n3n5 0
y_n3n6 0
y_n3n7 0
y_n3n8 0
y_n3n9 0
y_n3n10 0
y_n3n11 0
y_n3n12 0
y_n3n13 0
y_n3n14 0
y_n3n15 0
y_n3n16 0
y_n3n17 0
y_n3n18 0
y_n3n19 0
y_n4n5 1
y_n4n6 1
y_n4n7 1
y_n4n8 1
y_n4n9 1
y_n4n10 1
y_n4n11 1
y_n4n12 1
y_n4n13 1
y_n4n14 1
y_n4n15 1
y_n4n16 1
y_n4n17 0
y_n4n18 1
y_n4n19 0
y_n5n6 0
y_n5n7 0
y_n5n8 0
y_n5n9 0
y_n5n10 0
y_n5n11 0
y_n5n12 0
y_n5n13 0
y_n5n14 0
y_n5n15 0
y_n5n16 0
y_n5n17 0
y_n5n18 0
y_n5n19 0
y_n6n7 1
y_n6n8 1
y_n6n9 1
y_n6n10 1
y_n6n11 1
y_n6n12 1
y_n6n13 1
y_n6n14 1
y_n6n15 0
y_n6n16 0
y_n6n17 0
y_n6n18 0
y_n6n19 0
y_n7n8 1
y_n7n9 1
y_n7n10 0
y_n7n11 1
y_n7n12 1
y_n7n13 0
y_n7n14 1
y_n7n15 0
y_n7n16 0
y_n7n17 0
y_n7n18 0
y_n7n19 0
y_n8n9 0
y_n8n10 0
y_n8n11 0
y_n8n12 0
y_n8n13 0
y_n8n14 0
y_n8n15 0
y_n8n16 0
y_n8n17 0
y_n8n18 0
y_n8n19 0
y_n9n10 0
y_n9n11 0
y_n9n12 0
y_n9n13 0
y_n9n14 0
y_n9n15 0
y_n9n16 0
y_n9n17 0
y_n9n18 0
y_n9n19 0
y_n10n11 1
y_n10n12 1
y_n10n13 0
y_n10n14 1
y_n10n15 0
y_n10n16 0
y_n10n17 0
y_n10n18 0
y_n10n19 0
y_n11n12 0
y_n11n13 0
y_n11n14 0
y_n11n15 0
y_n11n16 0
y_n11n17 0
y_n11n18 0
y_n11n19 0
y_n12n13 0
y_n12n14 0
y_n12n15 0
y_n12n16 0
y_n12n17 0
y_n12n18 0
y_n12n19 0
y_n13n14 1
y_n13n15 0
y_n13n16 0
y_n13n17 0
y_n13n18 0
y_n13n19 0
y_n14n15 0
y_n14n16 0
y_n14n17 0
y_n14n18 0
y_n14n19 0
y_n15n16 0
y_n15n17 0
y_n15n18 0
y_n15n19 0
y_n16n17 0
y_n16n18 0
y_n16n19 0
y_n17n18 1
y_n17n19 1
y_n18n19 0
pos_n0 19
pos_n1 11
pos_n2 10
pos_n3 18
pos_n4 2
pos_n5 17
pos_n6 6
pos_n7 9
pos_n8 16
pos_n9 15
pos_n10 8
pos_n11 14
pos_n12 13
pos_n13 7
pos_n14 12
pos_n15 5
pos_n16 4
pos_n17 0
pos_n18 3
pos_n19 1
z_n14n19 0
z_n8n14 0
z_n8n19 0
z_n2n14 0
z_n1n17 0
z_n12n17 0
z_n14n17 0
z_n15n17 0
z_n17n18 0
z_n1n12 0
z_n1n14 1
z_n1n15 0
z_n1n18 0
z_n12n14 0
z_n12n15 0
z_n12n18 0
z_n14n15 0
z_n14n18 0
z_n15n18 0
z_n4n12 0
z_n4n7 0
z_n4n14 0
z_n7n12 0
z_n7n14 0
z_n3n19 0
z_n15n19 0
z_n18n19 0
z_n3n15 0
z_n3n18 0
z_n8n16 0
z_n10n13 0
z_n10n15 0
z_n13n15 0
z_n11n18 0
z_n3n11 0
z_n11n15 0
z_n5n12 0
z_n0n12 0
z_n0n5 0
z_n16n17 0
z_n6n16 0
z_n3n8 0
z_n2n3 0
z_n2n8 0
z_n6n18 0
z_n6n15 1
z_n0n1 0
z_n1n2 1
z_n1n3 0
z_n0n2 0
z_n0n3 0
z_n2n4 0
z_n2n6 0
z_n2n7 0
z_n2n13 0
z_n4n6 0
z_n4n13 0
z_n6n7 0
z_n6n13 1
z_n7n13 0
z_n5n10 0
z_n5n9 0
z_n5n18 0
z_n9n10 0
z_n10n18 0
z_n9n18 0
z_n2n9 0
z_n13n16 0
z_n13n19 0
z_n7n16 0
z_n7n19 0
z_n2n16 0
z_n2n19 0
z_n4n16 0
z_n4n19 1
z_n16n19 0
z_n0n4 0
z_n0n18 0
z_n4n18 1
